c FILE /home/rafael/Documents/HappySet/MIHS/inputs/happygen/output/graph_d_regular_k2_p0.3_v50_20241127_082546.txt
c SOURCE This is a d-regular graph formed for the happy graph colouring problem.
c DESCRIPTION It was generated using the problem generator of Rhyd Lewis
c
c GRAPH STATS
c Seed                             = -16616094
c Number of Nodes                  = 50
c Number of colours k              = 2
c Number of pre-assignments        = 15
c Degree of all vertices           = 6
c Density                          = 0.122449
c 
c The degrees of nodes 1 to 50, respectively, are as follows 
c [6, 6, 6, 6, 6, 6, 6, 6, 6, 6, 6, 6, 6, 6, 6, 6, 6, 6, 6, 6, 6, 6, 6, 6, 6, 6, 
c  6, 6, 6, 6, 6, 6, 6, 6, 6, 6, 6, 6, 6, 6, 6, 6, 6, 6, 6, 6, 6, 6, 6, 6] 
c  
p edge 50 150 2
e 1 7
e 1 17
e 1 18
e 1 19
e 1 32
e 1 50
e 2 4
e 2 10
e 2 17
e 2 19
e 2 27
e 2 46
e 3 22
e 3 24
e 3 35
e 3 37
e 3 44
e 3 45
e 4 12
e 4 16
e 4 24
e 4 39
e 4 45
e 5 9
e 5 29
e 5 41
e 5 44
e 5 46
e 5 48
e 6 15
e 6 19
e 6 23
e 6 30
e 6 31
e 6 37
e 7 11
e 7 23
e 7 30
e 7 47
e 7 50
e 8 13
e 8 20
e 8 22
e 8 37
e 8 38
e 8 50
e 9 17
e 9 19
e 9 30
e 9 36
e 9 48
e 10 15
e 10 17
e 10 21
e 10 30
e 10 41
e 11 22
e 11 27
e 11 28
e 11 34
e 11 50
e 12 14
e 12 33
e 12 35
e 12 46
e 12 47
e 13 19
e 13 21
e 13 30
e 13 45
e 13 47
e 14 20
e 14 25
e 14 29
e 14 32
e 14 42
e 15 18
e 15 33
e 15 36
e 15 40
e 16 24
e 16 26
e 16 28
e 16 37
e 16 47
e 17 28
e 17 37
e 18 36
e 18 39
e 18 43
e 18 49
e 19 32
e 20 21
e 20 29
e 20 38
e 20 43
e 21 29
e 21 32
e 21 42
e 22 24
e 22 30
e 22 32
e 23 24
e 23 36
e 23 47
e 23 49
e 24 49
e 25 34
e 25 35
e 25 36
e 25 40
e 25 44
e 26 27
e 26 28
e 26 35
e 26 42
e 26 43
e 27 36
e 27 43
e 27 48
e 28 34
e 28 42
e 29 42
e 29 46
e 31 33
e 31 41
e 31 44
e 31 45
e 31 49
e 32 47
e 33 34
e 33 37
e 33 49
e 34 39
e 34 48
e 35 40
e 35 48
e 38 40
e 38 41
e 38 45
e 38 46
e 39 43
e 39 45
e 39 50
e 40 42
e 40 44
e 41 44
e 41 48
e 43 49
e 46 50
n 3 2
n 5 1
n 13 2
n 16 2
n 21 2
n 23 2
n 25 2
n 30 2
n 33 2
n 41 1
n 45 2
n 47 2
n 48 1
n 49 2
n 50 1
